c This is QMaxSAT 2017 based on 14.07
c This is Glucose 3.0
c This is MiniSat 2.2.0
c WARNING: for repeatability, setting FPU to use double precision
c card = mrwto, comp = 0, pmodel = 0, narr = 2, mct = 29, verb = 0
cr firstCPXsol 0 0 0
c top = 167313
c |  Number of variables:    1800                                             |
c |  Number of clauses:      48402                                            |
c |  Weight of hard clauses: 167313                                           |
c |  Number of soft clauses: 1736                                             |
c |  Number of unit soft clauses: 0                                           |
c |  Maximum Cardinality (by unit): 354444       (0           )               |
c last restart ## conflicts  :  2518 407 
o 5950 | cpuTime 0.62165 s
c Sum of weights = 177222
c A number of soft clauses remained = 868
c MRWTO encoding for Pseudo-Boolean Constraints
c sizeMax=5950
c No.0 Divisor=9	generated by pow1
c No.1 Divisor=9	generated by pow1
c No.2 Divisor=9	generated by pow1
c No.3 Divisor=9	generated by pow1
c p0= 9	p1= 9	p2= 9	p3= 9	
c number of digits = 5
c linkingVar[0].size = 9, linkingVar[1].size = 9, linkingVar[2].size = 9, linkingVar[3].size = 9, linkingVar[4].size = 1, 
c Pseudo-Boolean Constraints: 21606 variables and 176681 clauses
c Sum of weights = 177222
c A number of soft clauses remained = 868
c MRWTO encoding for Pseudo-Boolean Constraints
c sizeMax=5950
c No.0 Divisor=9	generated by pow1
c No.1 Divisor=9	generated by pow1
c No.2 Divisor=9	generated by pow1
c No.3 Divisor=9	generated by pow1
c p0= 9	p1= 9	p2= 9	p3= 9	
c number of digits = 5
c linkingVar[0].size = 9, linkingVar[1].size = 9, linkingVar[2].size = 9, linkingVar[3].size = 9, linkingVar[4].size = 1, 
c Pseudo-Boolean Constraints: 21606 variables and 176681 clauses
c last restart ## conflicts  :  43 2966 
o 3211 | cpuTime 0.761385 s
c last restart ## conflicts  :  806 1022 
o 2926 | cpuTime 10.621 s
c last restart ## conflicts  :  276 1281 
o 2393 | cpuTime 11.944 s
s UNKNOWN
c Search is stopped by a limit (maybe time-limit)
cr positiVarArr: [ | 25(1->24) | 37(1->6) | 78(2->17) | 96(3->5) | 141(4->20) | 160(5->9) | 193(6->12) | 236(7->25) | 257(8->16) | 281(9->10) | 328(10->27) | 352(11->21) | 365(12->4) | 417(13->26) | 443(14->22) | 464(15->13) | 509(16->28) | 518(17->7) | 560(18->19) | 585(19->14) | 603(20->2) | 631(21->1) | 672(22->11) | 709(23->18) | 736(24->15) | 774(25->23) | 810(26->29) | 819(27->8) | 842(28->1) | 874(29->3) | ]
cr the 1-th chain: [ 1->24->15->13->26->29->3->5->9->10->27->8->16->28->1 ] (#non-depot=13) {#cumul.=14}
cr the 2-th chain: [ 1->6->12->4->20->2->17->7->25->23->18->19->14->22->11->21->1 ] (#non-depot=15) {#cumul.=29}
c Latest Answer = 0 by 4 loops
c restarts              : 71447
c conflicts             : 12971697       (3608 /sec)
c decisions             : 30273632       (0.00 % random) (8421 /sec)
c propagations          : 1233239759     (343031 /sec)
c conflict literals     : 1948264755     (15.70 % deleted)
c Memory used           : 582.00 MB
c CPU time              : 3595.13 s
